p tw 128 21121 2 
1 66 
1 68 
1 69 
1 71 
1 73 
1 76 
1 77 
1 79 
1 81 
1 83 
1 85 
1 87 
1 89 
1 92 
1 93 
1 95 
1 97 
1 100 
1 102 
1 103 
1 105 
1 107 
1 109 
1 111 
1 113 
1 115 
1 117 
1 119 
1 122 
1 123 
1 126 
1 127 
2 65 
2 67 
2 70 
2 72 
2 74 
2 75 
2 78 
2 80 
2 82 
2 84 
2 86 
2 88 
2 90 
2 91 
2 94 
2 96 
2 98 
2 99 
2 101 
2 104 
2 106 
2 108 
2 110 
2 112 
2 114 
2 116 
2 118 
2 120 
2 121 
2 124 
2 125 
2 128 
3 4 
3 65 
3 68 
3 69 
3 72 
3 73 
3 76 
3 78 
3 79 
3 81 
3 84 
3 86 
3 88 
3 90 
3 91 
3 94 
3 95 
3 97 
3 99 
3 101 
3 104 
3 106 
3 108 
3 109 
3 112 
3 113 
3 115 
3 117 
3 120 
3 122 
3 123 
3 126 
3 127 
4 66 
4 67 
4 70 
4 71 
4 74 
4 75 
4 77 
4 80 
4 82 
4 83 
4 85 
4 87 
4 89 
4 92 
4 93 
4 96 
4 98 
4 100 
4 102 
4 103 
4 105 
4 107 
4 110 
4 111 
4 114 
4 116 
4 118 
4 119 
4 121 
4 124 
4 125 
4 128 
5 6 
5 66 
5 67 
5 70 
5 71 
5 73 
5 75 
5 77 
5 80 
5 81 
5 83 
5 85 
5 88 
5 90 
5 92 
5 94 
5 95 
5 98 
5 100 
5 101 
5 104 
5 106 
5 108 
5 110 
5 112 
5 114 
5 115 
5 117 
5 119 
5 121 
5 123 
5 126 
5 127 
6 65 
6 68 
6 69 
6 72 
6 74 
6 76 
6 78 
6 79 
6 82 
6 84 
6 86 
6 87 
6 89 
6 91 
6 93 
6 96 
6 97 
6 99 
6 102 
6 103 
6 105 
6 107 
6 109 
6 111 
6 113 
6 116 
6 118 
6 120 
6 122 
6 124 
6 125 
6 128 
7 8 
7 66 
7 68 
7 69 
7 72 
7 73 
7 76 
7 77 
7 80 
7 82 
7 83 
7 86 
7 88 
7 89 
7 92 
7 93 
7 96 
7 98 
7 100 
7 102 
7 104 
7 106 
7 108 
7 109 
7 112 
7 114 
7 116 
7 117 
7 120 
7 122 
7 124 
7 126 
7 128 
8 65 
8 67 
8 70 
8 71 
8 74 
8 75 
8 78 
8 79 
8 81 
8 84 
8 85 
8 87 
8 90 
8 91 
8 94 
8 95 
8 97 
8 99 
8 101 
8 103 
8 105 
8 107 
8 110 
8 111 
8 113 
8 115 
8 118 
8 119 
8 121 
8 123 
8 125 
8 127 
9 10 
9 65 
9 68 
9 70 
9 71 
9 74 
9 76 
9 77 
9 79 
9 82 
9 84 
9 86 
9 87 
9 90 
9 91 
9 93 
9 96 
9 98 
9 100 
9 101 
9 104 
9 106 
9 107 
9 109 
9 111 
9 114 
9 115 
9 117 
9 119 
9 121 
9 124 
9 126 
9 127 
10 66 
10 67 
10 69 
10 72 
10 73 
10 75 
10 78 
10 80 
10 81 
10 83 
10 85 
10 88 
10 89 
10 92 
10 94 
10 95 
10 97 
10 99 
10 102 
10 103 
10 105 
10 108 
10 110 
10 112 
10 113 
10 116 
10 118 
10 120 
10 122 
10 123 
10 125 
10 128 
11 12 
11 65 
11 68 
11 69 
11 72 
11 73 
11 75 
11 77 
11 80 
11 82 
11 83 
11 85 
11 87 
11 90 
11 91 
11 94 
11 96 
11 97 
11 99 
11 102 
11 104 
11 105 
11 108 
11 110 
11 111 
11 114 
11 115 
11 118 
11 119 
11 122 
11 124 
11 126 
11 127 
12 66 
12 67 
12 70 
12 71 
12 74 
12 76 
12 78 
12 79 
12 81 
12 84 
12 86 
12 88 
12 89 
12 92 
12 93 
12 95 
12 98 
12 100 
12 101 
12 103 
12 106 
12 107 
12 109 
12 112 
12 113 
12 116 
12 117 
12 120 
12 121 
12 123 
12 125 
12 128 
13 14 
13 66 
13 67 
13 70 
13 72 
13 73 
13 75 
13 78 
13 79 
13 82 
13 84 
13 86 
13 87 
13 89 
13 91 
13 94 
13 95 
13 98 
13 100 
13 102 
13 104 
13 105 
13 108 
13 109 
13 111 
13 114 
13 116 
13 117 
13 119 
13 122 
13 123 
13 125 
13 127 
14 65 
14 68 
14 69 
14 71 
14 74 
14 76 
14 77 
14 80 
14 81 
14 83 
14 85 
14 88 
14 90 
14 92 
14 93 
14 96 
14 97 
14 99 
14 101 
14 103 
14 106 
14 107 
14 110 
14 112 
14 113 
14 115 
14 118 
14 120 
14 121 
14 124 
14 126 
14 128 
15 16 
15 65 
15 67 
15 70 
15 72 
15 73 
15 76 
15 77 
15 79 
15 82 
15 84 
15 85 
15 87 
15 89 
15 92 
15 93 
15 96 
15 97 
15 100 
15 101 
15 104 
15 106 
15 108 
15 110 
15 112 
15 113 
15 115 
15 118 
15 119 
15 122 
15 123 
15 125 
15 128 
16 66 
16 68 
16 69 
16 71 
16 74 
16 75 
16 78 
16 80 
16 81 
16 83 
16 86 
16 88 
16 90 
16 91 
16 94 
16 95 
16 98 
16 99 
16 102 
16 103 
16 105 
16 107 
16 109 
16 111 
16 114 
16 116 
16 117 
16 120 
16 121 
16 124 
16 126 
16 127 
17 18 
17 65 
17 68 
17 69 
17 71 
17 74 
17 75 
17 77 
17 80 
17 81 
17 84 
17 86 
17 87 
17 89 
17 92 
17 94 
17 96 
17 98 
17 100 
17 102 
17 104 
17 105 
17 108 
17 109 
17 112 
17 113 
17 115 
17 118 
17 120 
17 121 
17 123 
17 125 
17 127 
18 66 
18 67 
18 70 
18 72 
18 73 
18 76 
18 78 
18 79 
18 82 
18 83 
18 85 
18 88 
18 90 
18 91 
18 93 
18 95 
18 97 
18 99 
18 101 
18 103 
18 106 
18 107 
18 110 
18 111 
18 114 
18 116 
18 117 
18 119 
18 122 
18 124 
18 126 
18 128 
19 20 
19 66 
19 68 
19 70 
19 72 
19 73 
19 76 
19 77 
19 79 
19 81 
19 83 
19 86 
19 87 
19 90 
19 91 
19 93 
19 95 
19 98 
19 99 
19 102 
19 104 
19 105 
19 107 
19 110 
19 112 
19 114 
19 115 
19 118 
19 120 
19 121 
19 123 
19 125 
19 128 
20 65 
20 67 
20 69 
20 71 
20 74 
20 75 
20 78 
20 80 
20 82 
20 84 
20 85 
20 88 
20 89 
20 92 
20 94 
20 96 
20 97 
20 100 
20 101 
20 103 
20 106 
20 108 
20 109 
20 111 
20 113 
20 116 
20 117 
20 119 
20 122 
20 124 
20 126 
20 127 
21 22 
21 66 
21 67 
21 69 
21 71 
21 73 
21 76 
21 77 
21 79 
21 81 
21 83 
21 86 
21 87 
21 90 
21 91 
21 94 
21 96 
21 98 
21 100 
21 101 
21 103 
21 106 
21 108 
21 110 
21 111 
21 113 
21 116 
21 118 
21 120 
21 122 
21 124 
21 125 
21 127 
22 65 
22 68 
22 70 
22 72 
22 74 
22 75 
22 78 
22 80 
22 82 
22 84 
22 85 
22 88 
22 89 
22 92 
22 93 
22 95 
22 97 
22 99 
22 102 
22 104 
22 105 
22 107 
22 109 
22 112 
22 114 
22 115 
22 117 
22 119 
22 121 
22 123 
22 126 
22 128 
23 24 
23 65 
23 68 
23 70 
23 71 
23 74 
23 76 
23 77 
23 80 
23 82 
23 83 
23 85 
23 87 
23 90 
23 91 
23 94 
23 95 
23 97 
23 100 
23 101 
23 103 
23 105 
23 108 
23 109 
23 112 
23 114 
23 116 
23 117 
23 120 
23 122 
23 123 
23 125 
23 128 
24 66 
24 67 
24 69 
24 72 
24 73 
24 75 
24 78 
24 79 
24 81 
24 84 
24 86 
24 88 
24 89 
24 92 
24 93 
24 96 
24 98 
24 99 
24 102 
24 104 
24 106 
24 107 
24 110 
24 111 
24 113 
24 115 
24 118 
24 119 
24 121 
24 124 
24 126 
24 127 
25 26 
25 65 
25 67 
25 70 
25 71 
25 74 
25 76 
25 78 
25 80 
25 81 
25 83 
25 86 
25 87 
25 89 
25 92 
25 93 
25 95 
25 97 
25 99 
25 102 
25 104 
25 106 
25 108 
25 110 
25 111 
25 114 
25 115 
25 117 
25 120 
25 122 
25 124 
25 125 
25 127 
26 66 
26 68 
26 69 
26 72 
26 73 
26 75 
26 77 
26 79 
26 82 
26 84 
26 85 
26 88 
26 90 
26 91 
26 94 
26 96 
26 98 
26 100 
26 101 
26 103 
26 105 
26 107 
26 109 
26 112 
26 113 
26 116 
26 118 
26 119 
26 121 
26 123 
26 126 
26 128 
27 28 
27 66 
27 67 
27 70 
27 71 
27 73 
27 76 
27 77 
27 80 
27 82 
27 84 
27 85 
27 87 
27 89 
27 91 
27 94 
27 95 
27 97 
27 99 
27 102 
27 104 
27 106 
27 107 
27 109 
27 112 
27 113 
27 116 
27 118 
27 120 
27 121 
27 124 
27 126 
27 127 
28 65 
28 68 
28 69 
28 72 
28 74 
28 75 
28 78 
28 79 
28 81 
28 83 
28 86 
28 88 
28 90 
28 92 
28 93 
28 96 
28 98 
28 100 
28 101 
28 103 
28 105 
28 108 
28 110 
28 111 
28 114 
28 115 
28 117 
28 119 
28 122 
28 123 
28 125 
28 128 
29 30 
29 66 
29 67 
29 69 
29 71 
29 74 
29 75 
29 77 
29 79 
29 81 
29 84 
29 86 
29 87 
29 90 
29 92 
29 93 
29 95 
29 97 
29 99 
29 101 
29 104 
29 105 
29 108 
29 109 
29 112 
29 114 
29 116 
29 118 
29 119 
29 122 
29 124 
29 126 
29 128 
30 65 
30 68 
30 70 
30 72 
30 73 
30 76 
30 78 
30 80 
30 82 
30 83 
30 85 
30 88 
30 89 
30 91 
30 94 
30 96 
30 98 
30 100 
30 102 
30 103 
30 106 
30 107 
30 110 
30 111 
30 113 
30 115 
30 117 
30 120 
30 121 
30 123 
30 125 
30 127 
31 32 
31 65 
31 68 
31 69 
31 71 
31 73 
31 75 
31 78 
31 79 
31 82 
31 83 
31 86 
31 87 
31 89 
31 92 
31 94 
31 95 
31 97 
31 100 
31 101 
31 104 
31 106 
31 107 
31 110 
31 111 
31 114 
31 116 
31 118 
31 120 
31 121 
31 123 
31 126 
31 128 
32 66 
32 67 
32 70 
32 72 
32 74 
32 76 
32 77 
32 80 
32 81 
32 84 
32 85 
32 88 
32 90 
32 91 
32 93 
32 96 
32 98 
32 99 
32 102 
32 103 
32 105 
32 108 
32 109 
32 112 
32 113 
32 115 
32 117 
32 119 
32 122 
32 124 
32 125 
32 127 
33 34 
33 66 
33 68 
33 70 
33 72 
33 74 
33 76 
33 78 
33 80 
33 81 
33 84 
33 86 
33 87 
33 90 
33 92 
33 94 
33 96 
33 97 
33 100 
33 102 
33 103 
33 106 
33 107 
33 110 
33 112 
33 114 
33 116 
33 118 
33 119 
33 122 
33 123 
33 126 
33 127 
34 65 
34 67 
34 69 
34 71 
34 73 
34 75 
34 77 
34 79 
34 82 
34 83 
34 85 
34 88 
34 89 
34 91 
34 93 
34 95 
34 98 
34 99 
34 101 
34 104 
34 105 
34 108 
34 109 
34 111 
34 113 
34 115 
34 117 
34 120 
34 121 
34 124 
34 125 
34 128 
35 36 
35 66 
35 68 
35 70 
35 72 
35 74 
35 75 
35 78 
35 79 
35 81 
35 83 
35 85 
35 87 
35 89 
35 91 
35 93 
35 96 
35 97 
35 100 
35 101 
35 104 
35 105 
35 108 
35 110 
35 112 
35 113 
35 116 
35 117 
35 120 
35 121 
35 124 
35 126 
35 127 
36 65 
36 67 
36 69 
36 71 
36 73 
36 76 
36 77 
36 80 
36 82 
36 84 
36 86 
36 88 
36 90 
36 92 
36 94 
36 95 
36 98 
36 99 
36 102 
36 103 
36 106 
36 107 
36 109 
36 111 
36 114 
36 115 
36 118 
36 119 
36 122 
36 123 
36 125 
36 128 
37 38 
37 66 
37 68 
37 70 
37 71 
37 74 
37 76 
37 78 
37 79 
37 82 
37 84 
37 85 
37 88 
37 90 
37 92 
37 94 
37 95 
37 98 
37 100 
37 102 
37 104 
37 105 
37 108 
37 110 
37 111 
37 113 
37 115 
37 118 
37 120 
37 122 
37 124 
37 126 
37 128 
38 65 
38 67 
38 69 
38 72 
38 73 
38 75 
38 77 
38 80 
38 81 
38 83 
38 86 
38 87 
38 89 
38 91 
38 93 
38 96 
38 97 
38 99 
38 101 
38 103 
38 106 
38 107 
38 109 
38 112 
38 114 
38 116 
38 117 
38 119 
38 121 
38 123 
38 125 
38 127 
39 40 
39 66 
39 68 
39 69 
39 72 
39 74 
39 76 
39 78 
39 79 
39 82 
39 83 
39 85 
39 87 
39 89 
39 92 
39 94 
39 95 
39 98 
39 99 
39 101 
39 103 
39 106 
39 108 
39 109 
39 112 
39 114 
39 115 
39 118 
39 119 
39 121 
39 124 
39 125 
39 127 
40 65 
40 67 
40 70 
40 71 
40 73 
40 75 
40 77 
40 80 
40 81 
40 84 
40 86 
40 88 
40 90 
40 91 
40 93 
40 96 
40 97 
40 100 
40 102 
40 104 
40 105 
40 107 
40 110 
40 111 
40 113 
40 116 
40 117 
40 120 
40 122 
40 123 
40 126 
40 128 
41 42 
41 66 
41 67 
41 69 
41 72 
41 74 
41 76 
41 77 
41 80 
41 82 
41 84 
41 86 
41 88 
41 89 
41 91 
41 93 
41 95 
41 97 
41 100 
41 101 
41 103 
41 105 
41 108 
41 110 
41 111 
41 114 
41 115 
41 118 
41 120 
41 121 
41 123 
41 126 
41 127 
42 65 
42 68 
42 70 
42 71 
42 73 
42 75 
42 78 
42 79 
42 81 
42 83 
42 85 
42 87 
42 90 
42 92 
42 94 
42 96 
42 98 
42 99 
42 102 
42 104 
42 106 
42 107 
42 109 
42 112 
42 113 
42 116 
42 117 
42 119 
42 122 
42 124 
42 125 
42 128 
43 44 
43 65 
43 67 
43 70 
43 71 
43 73 
43 76 
43 78 
43 79 
43 81 
43 83 
43 86 
43 88 
43 89 
43 91 
43 94 
43 96 
43 97 
43 100 
43 102 
43 103 
43 105 
43 108 
43 109 
43 112 
43 114 
43 115 
43 118 
43 119 
43 121 
43 124 
43 126 
43 128 
44 66 
44 68 
44 69 
44 72 
44 74 
44 75 
44 77 
44 80 
44 82 
44 84 
44 85 
44 87 
44 90 
44 92 
44 93 
44 95 
44 98 
44 99 
44 101 
44 104 
44 106 
44 107 
44 110 
44 111 
44 113 
44 116 
44 117 
44 120 
44 122 
44 123 
44 125 
44 127 
45 46 
45 66 
45 68 
45 70 
45 72 
45 74 
45 75 
45 77 
45 80 
45 81 
45 83 
45 86 
45 88 
45 89 
45 91 
45 94 
45 95 
45 97 
45 100 
45 101 
45 104 
45 106 
45 107 
45 109 
45 111 
45 113 
45 115 
45 118 
45 119 
45 122 
45 124 
45 125 
45 128 
46 65 
46 67 
46 69 
46 71 
46 73 
46 76 
46 78 
46 79 
46 82 
46 84 
46 85 
46 87 
46 90 
46 92 
46 93 
46 96 
46 98 
46 99 
46 102 
46 103 
46 105 
46 108 
46 110 
46 112 
46 114 
46 116 
46 117 
46 120 
46 121 
46 123 
46 126 
46 127 
47 48 
47 65 
47 68 
47 69 
47 71 
47 73 
47 76 
47 78 
47 80 
47 81 
47 84 
47 85 
47 88 
47 89 
47 91 
47 93 
47 95 
47 98 
47 100 
47 101 
47 104 
47 105 
47 107 
47 110 
47 112 
47 114 
47 116 
47 118 
47 119 
47 122 
47 124 
47 125 
47 127 
48 66 
48 67 
48 70 
48 72 
48 74 
48 75 
48 77 
48 79 
48 82 
48 83 
48 86 
48 87 
48 90 
48 92 
48 94 
48 96 
48 97 
48 99 
48 102 
48 103 
48 106 
48 108 
48 109 
48 111 
48 113 
48 115 
48 117 
48 120 
48 121 
48 123 
48 126 
48 128 
49 50 
49 65 
49 67 
49 69 
49 72 
49 74 
49 75 
49 77 
49 79 
49 81 
49 84 
49 85 
49 87 
49 89 
49 91 
49 94 
49 95 
49 98 
49 100 
49 102 
49 103 
49 106 
49 107 
49 110 
49 112 
49 114 
49 115 
49 117 
49 120 
49 122 
49 124 
49 126 
49 128 
50 66 
50 68 
50 70 
50 71 
50 73 
50 76 
50 78 
50 80 
50 82 
50 83 
50 86 
50 88 
50 90 
50 92 
50 93 
50 96 
50 97 
50 99 
50 101 
50 104 
50 105 
50 108 
50 109 
50 111 
50 113 
50 116 
50 118 
50 119 
50 121 
50 123 
50 125 
50 127 
51 52 
51 66 
51 67 
51 69 
51 72 
51 73 
51 76 
51 78 
51 80 
51 81 
51 84 
51 85 
51 87 
51 90 
51 92 
51 94 
51 96 
51 97 
51 100 
51 101 
51 104 
51 105 
51 107 
51 109 
51 111 
51 114 
51 115 
51 117 
51 120 
51 121 
51 124 
51 125 
51 128 
52 65 
52 68 
52 70 
52 71 
52 74 
52 75 
52 77 
52 79 
52 82 
52 83 
52 86 
52 88 
52 89 
52 91 
52 93 
52 95 
52 98 
52 99 
52 102 
52 103 
52 106 
52 108 
52 110 
52 112 
52 113 
52 116 
52 118 
52 119 
52 122 
52 123 
52 126 
52 127 
53 54 
53 65 
53 67 
53 70 
53 72 
53 73 
53 75 
53 78 
53 80 
53 82 
53 83 
53 86 
53 87 
53 90 
53 92 
53 93 
53 95 
53 98 
53 100 
53 101 
53 103 
53 105 
53 107 
53 109 
53 112 
53 113 
53 115 
53 118 
53 120 
53 122 
53 124 
53 126 
53 127 
54 66 
54 68 
54 69 
54 71 
54 74 
54 76 
54 77 
54 79 
54 81 
54 84 
54 85 
54 88 
54 89 
54 91 
54 94 
54 96 
54 97 
54 99 
54 102 
54 104 
54 106 
54 108 
54 110 
54 111 
54 114 
54 116 
54 117 
54 119 
54 121 
54 123 
54 125 
54 128 
55 56 
55 65 
55 68 
55 70 
55 72 
55 73 
55 76 
55 77 
55 80 
55 81 
55 84 
55 86 
55 87 
55 89 
55 92 
55 94 
55 95 
55 98 
55 99 
55 101 
55 103 
55 105 
55 108 
55 110 
55 111 
55 113 
55 116 
55 117 
55 119 
55 121 
55 124 
55 126 
55 128 
56 66 
56 67 
56 69 
56 71 
56 74 
56 75 
56 78 
56 79 
56 82 
56 83 
56 85 
56 88 
56 90 
56 91 
56 93 
56 96 
56 97 
56 100 
56 102 
56 104 
56 106 
56 107 
56 109 
56 112 
56 114 
56 115 
56 118 
56 120 
56 122 
56 123 
56 125 
56 127 
57 58 
57 66 
57 68 
57 70 
57 71 
57 73 
57 75 
57 77 
57 79 
57 82 
57 84 
57 86 
57 88 
57 89 
57 92 
57 94 
57 96 
57 97 
57 99 
57 101 
57 103 
57 105 
57 107 
57 110 
57 112 
57 114 
57 115 
57 117 
57 120 
57 122 
57 124 
57 125 
57 127 
58 65 
58 67 
58 69 
58 72 
58 74 
58 76 
58 78 
58 80 
58 81 
58 83 
58 85 
58 87 
58 90 
58 91 
58 93 
58 95 
58 98 
58 100 
58 102 
58 104 
58 106 
58 108 
58 109 
58 111 
58 113 
58 116 
58 118 
58 119 
58 121 
58 123 
58 126 
58 128 
59 60 
59 66 
59 67 
59 69 
59 71 
59 74 
59 76 
59 78 
59 80 
59 82 
59 83 
59 86 
59 87 
59 89 
59 91 
59 94 
59 96 
59 98 
59 99 
59 101 
59 104 
59 105 
59 107 
59 110 
59 112 
59 113 
59 115 
59 117 
59 119 
59 122 
59 123 
59 126 
59 128 
60 65 
60 68 
60 70 
60 72 
60 73 
60 75 
60 77 
60 79 
60 81 
60 84 
60 85 
60 88 
60 90 
60 92 
60 93 
60 95 
60 97 
60 100 
60 102 
60 103 
60 106 
60 108 
60 109 
60 111 
60 114 
60 116 
60 118 
60 120 
60 121 
60 124 
60 125 
60 127 
61 62 
61 66 
61 68 
61 70 
61 71 
61 73 
61 75 
61 78 
61 80 
61 81 
61 84 
61 85 
61 87 
61 89 
61 91 
61 93 
61 96 
61 98 
61 99 
61 101 
61 103 
61 106 
61 108 
61 109 
61 111 
61 114 
61 115 
61 118 
61 120 
61 122 
61 123 
61 126 
61 128 
62 65 
62 67 
62 69 
62 72 
62 74 
62 76 
62 77 
62 79 
62 82 
62 83 
62 86 
62 88 
62 90 
62 92 
62 94 
62 95 
62 97 
62 100 
62 102 
62 104 
62 105 
62 107 
62 110 
62 112 
62 113 
62 116 
62 117 
62 119 
62 121 
62 124 
62 125 
62 127 
63 64 
63 65 
63 67 
63 70 
63 72 
63 74 
63 76 
63 77 
63 79 
63 81 
63 83 
63 85 
63 88 
63 89 
63 92 
63 94 
63 96 
63 98 
63 99 
63 101 
63 104 
63 105 
63 107 
63 109 
63 111 
63 114 
63 116 
63 118 
63 120 
63 122 
63 123 
63 126 
63 127 
64 66 
64 68 
64 69 
64 71 
64 73 
64 75 
64 78 
64 80 
64 82 
64 84 
64 86 
64 87 
64 90 
64 91 
64 93 
64 95 
64 97 
64 100 
64 102 
64 103 
64 106 
64 108 
64 110 
64 112 
64 113 
64 115 
64 117 
64 119 
64 121 
64 124 
64 125 
64 128 
65 66 
67 68 
69 70 
71 72 
73 74 
75 76 
77 78 
79 80 
81 82 
83 84 
85 86 
87 88 
89 90 
91 92 
93 94 
95 96 
97 98 
99 100 
101 102 
103 104 
105 106 
107 108 
109 110 
111 112 
113 114 
115 116 
117 118 
119 120 
121 122 
123 124 
125 126 
127 128 
